
Log started (V12.10.0.0) Sun Apr  4 13:29:40 2021

Warning, line 2586: Name 's27' does not exist.

Problem 'asset.lp' read.
Read time = 0.01 sec. (0.23 ticks)
New value for default parallel thread count: 1
New value for time limit in seconds: 300
Version identifier: 12.10.0.0 | 2019-11-26 | 843d4de
CPXPARAM_Threads                                 1
CPXPARAM_TimeLimit                               300
Found incumbent of value -0.889625 after 0.00 sec. (0.10 ticks)
Tried aggregator 3 times.
MIP Presolve eliminated 845 rows and 478 columns.
MIP Presolve modified 2075 coefficients.
Aggregator did 520 substitutions.
Reduced MIP has 818 rows, 890 columns, and 3750 nonzeros.
Reduced MIP has 717 binaries, 131 generals, 0 SOSs, and 0 indicators.
Presolve time = 0.01 sec. (8.68 ticks)
Probing fixed 147 vars, tightened 24 bounds.
Probing time = 0.01 sec. (2.70 ticks)
Cover probing fixed 0 vars, tightened 109 bounds.
Tried aggregator 1 time.
MIP Presolve eliminated 211 rows and 202 columns.
MIP Presolve modified 246 coefficients.
Reduced MIP has 607 rows, 681 columns, and 2546 nonzeros.
Reduced MIP has 539 binaries, 100 generals, 0 SOSs, and 0 indicators.
Presolve time = 0.00 sec. (2.54 ticks)
Probing time = 0.00 sec. (1.78 ticks)
Tried aggregator 1 time.
Detecting symmetries...
MIP Presolve modified 32 coefficients.
Reduced MIP has 607 rows, 681 columns, and 2546 nonzeros.
Reduced MIP has 539 binaries, 100 generals, 0 SOSs, and 0 indicators.
Presolve time = 0.00 sec. (1.79 ticks)
Probing time = 0.00 sec. (1.78 ticks)
Clique table members: 1862.
MIP emphasis: balance optimality and feasibility.
MIP search method: dynamic search.
Parallel mode: none, using 1 thread.
Root relaxation solution time = 0.01 sec. (7.90 ticks)

        Nodes                                         Cuts/
   Node  Left     Objective  IInf  Best Integer    Best Bound    ItCnt     Gap

*     0+    0                           -0.8896      382.2304              --- 
      0     0      244.1295   168       -0.8896      244.1295      509     --- 
      0     0      230.8634   168       -0.8896     Cuts: 251      807     --- 
      0     0      228.5836   168       -0.8896     Cuts: 224      937     --- 
      0     0      228.4775   168       -0.8896      Cuts: 97     1007     --- 
      0     0      227.4839   168       -0.8896      Cuts: 94     1078     --- 
      0     0      225.6191   168       -0.8896      Cuts: 90     1187     --- 
Detecting symmetries...
      0     0      225.6076   168       -0.8896     Cuts: 102     1243     --- 
      0     0      225.3591   168       -0.8896      Cuts: 83     1288     --- 
      0     0      225.3586   168       -0.8896      Cuts: 49     1320     --- 
*     0+    0                           60.7699      225.3586           270.84%
      0     0        cutoff             60.7699      225.3586     1320  270.84%
Detecting symmetries...
      0     2      225.3586   156       60.7699      225.3568     1320  270.84%
Elapsed time = 0.21 sec. (214.21 ticks, tree = 0.01 MB, solutions = 1)
*   110+   87                          152.5968      224.0855            46.85%
*   128    93      integral     0      162.7371      224.0855     5266   37.70%
*   200+  159                          164.6502      224.0329            36.07%
*   300+  225                          171.9718      223.6815            30.07%
    305   229      218.4993   126      171.9718      223.6798    10301   30.07%

Performing restart 1

Repeating presolve.
Tried aggregator 1 time.
MIP Presolve modified 346 coefficients.
Reduced MIP has 607 rows, 681 columns, and 2326 nonzeros.
Reduced MIP has 539 binaries, 100 generals, 0 SOSs, and 0 indicators.
Presolve time = 0.00 sec. (2.13 ticks)
Tried aggregator 1 time.
Reduced MIP has 607 rows, 681 columns, and 2326 nonzeros.
Reduced MIP has 539 binaries, 100 generals, 0 SOSs, and 0 indicators.
Presolve time = 0.00 sec. (1.75 ticks)
Represolve time = 0.01 sec. (10.03 ticks)
    477     0      225.0975   145      171.9718     Cuts: 136    16334   30.00%
    477     0      224.5113   145      171.9718     Cuts: 136    16538   30.00%
    477     0      224.2162   145      171.9718     Cuts: 116    16707   30.00%
    477     0      223.8464   145      171.9718     Cuts: 105    16967   30.00%
    477     0      223.6569   145      171.9718     Cuts: 165    17114   30.00%
    477     0      221.9107   145      171.9718     Cuts: 114    17432   29.04%
    477     0      221.8693   145      171.9718     Cuts: 110    17637   29.01%
    477     0      221.7825   145      171.9718     Cuts: 101    17811   28.96%
    477     0      221.7724   145      171.9718     Cuts: 120    17940   28.96%
    477     0      221.7435   145      171.9718      Cuts: 74    18111   28.94%
    477     0      221.7083   145      171.9718      Cuts: 80    18284   28.92%
    477     0      221.7046   145      171.9718      Cuts: 48    18383   28.92%
    477     0      221.6807   145      171.9718      Cuts: 50    18471   28.91%
    477     0      221.6255   145      171.9718      Cuts: 51    18637   28.87%
*   477+    0                          171.9723      221.6255            28.87%
*   477+    0                          179.9378      221.6255            23.17%
*   477+    0                          179.9387      221.6255            23.17%
    477     0        cutoff            179.9387      221.6255    18637   23.17%
    477     0      221.5463   145      179.9387      Cuts: 73    18819   23.12%
    477     0      221.4669   145      179.9387      Cuts: 81    18863   23.08%
    477     0      221.3925   145      179.9387      Cuts: 62    18943   23.04%
    477     0      221.0735   145      179.9387      Cuts: 54    19002   22.86%
    477     0      221.0341   145      179.9387      Cuts: 62    19050   22.84%
    477     0      221.0129   145      179.9387      Cuts: 56    19108   22.83%
    477     0      221.0034   145      179.9387      Cuts: 44    19154   22.82%
    477     0      220.9891   145      179.9387      Cuts: 48    19226   22.81%
*   477+    0                          179.9394      220.9891            22.81%
*   477+    0                          179.9398      220.9891            22.81%
*   477+    0                          180.9003      220.9891            22.16%
    477     2      220.9891   171      180.9003      220.9832    19226   22.16%
    483     8      206.9742   100      180.9003      219.5053    20266   21.34%
    527    52      206.0318    60      180.9003      219.5053    21278   21.34%
*   560    82      integral     0      182.8025      219.5053    22033   20.08%
    565    86      217.9047   108      182.8025      219.0984    22912   19.86%
    644   145      201.0863   109      182.8025      218.9139    25958   19.75%
*   660+  131                          188.7447      218.1228            15.56%
    701   164      201.3601    68      188.7447      218.1228    29737   15.56%
    741   199      207.1423    95      188.7447      218.0862    33136   15.55%
   1000   410      214.8422   148      188.7447      216.9292    45696   14.93%
Elapsed time = 4.80 sec. (5296.11 ticks, tree = 0.27 MB, solutions = 13)
*  1117+  482                          191.7527      216.0600            12.68%
*  1217+  563                          191.7537      215.2829            12.27%
*  1217+  465                          198.5936      215.2829             8.40%
   1324   547      202.0708    71      198.5936      214.8382    58764    8.18%
   1563   684      201.7829   131      198.5936      212.5756    71809    7.04%
   1756   767      205.9273    50      198.5936      211.0226    85068    6.26%
*  1937+  863                          198.8585      210.4201             5.81%
   1971   881        cutoff            198.8585      210.0990    97231    5.65%
*  2037+  907                          198.8586      209.8152             5.51%
   2169   973        cutoff            198.8586      209.2515   111231    5.23%
   2382  1040      203.1354    95      198.8586      208.4210   125503    4.81%
*  2637+  981                          200.7469      207.5162             3.37%
*  2637+  981                          200.7482      207.5162             3.37%
   2668   996        cutoff            200.7482      207.4577   138593    3.34%
*  2737+ 1030                          200.7483      207.2722             3.25%
   2986  1138      204.2150    67      200.7483      206.9968   150981    3.11%
   3333  1266      201.7762    76      200.7483      206.9411   164569    3.08%
   3639  1369      201.7331    68      200.7483      206.7836   177712    3.01%
Elapsed time = 12.93 sec. (14907.05 ticks, tree = 0.89 MB, solutions = 21)
   3987  1462      203.9511    53      200.7483      206.1594   191508    2.70%
   4281  1478      202.6542    85      200.7483      205.8247   203859    2.53%
   4556  1459      203.4501    86      200.7483      205.4903   216704    2.36%
   4842  1454        cutoff            200.7483      205.2014   230113    2.22%
   5153  1458      203.2189    56      200.7483      204.9154   244200    2.08%
   5506  1394        cutoff            200.7483      204.6284   258901    1.93%
   5916  1354      201.5416    86      200.7483      204.2206   275914    1.73%
   6336  1305      202.0791    70      200.7483      203.8733   290366    1.56%
*  6477+ 1299                          200.7485      203.8279             1.53%
   6771  1196      203.0912    50      200.7485      203.4500   304419    1.35%
   7209  1047      200.7496    29      200.7485      202.8922   318578    1.07%
Elapsed time = 21.15 sec. (24483.03 ticks, tree = 0.74 MB, solutions = 22)
   7780   837      201.9389    28      200.7485      202.1616   332507    0.70%

GUB cover cuts applied:  11
Clique cuts applied:  77
Cover cuts applied:  6
Implied bound cuts applied:  110
Flow cuts applied:  17
Mixed integer rounding cuts applied:  117
Zero-half cuts applied:  49
Lift and project cuts applied:  13
Gomory fractional cuts applied:  10

Root node processing (before b&c):
  Real time             =    0.21 sec. (214.53 ticks)
Sequential b&c:
  Real time             =   22.53 sec. (26098.72 ticks)
                          ------------
Total (root+branch&cut) =   22.74 sec. (26313.25 ticks)

Solution pool: 23 solutions saved.

MIP - Integer optimal, tolerance (0.0001/1e-06):  Objective =  2.0074850512e+02
Current MIP best bound =  2.0075855278e+02 (gap = 0.0100477, 0.01%)
Solution time =   22.74 sec.  Iterations = 345221  Nodes = 8542 (311)
Deterministic time = 26313.26 ticks  (1156.92 ticks/sec)


Incumbent solution
Variable Name           Solution Value
F                           225.000000
f1                            0.921495
f2                           23.330000
y142                          1.000000
y171                          1.000000
y182                          1.000000
y224                          1.000000
y47                           1.000000
y121                          1.000000
y184                          1.000000
y118                          1.000000
y159                          1.000000
y18                           1.000000
y124                          1.000000
y63                           1.000000
y212                          1.000000
y205                          1.000000
y7                            1.000000
y1                            1.000000
y245                          1.000000
s9                            6.000000
s22                           6.000000
s26                           6.000000
s43                           6.000000
s44                           6.000000
s86                           6.000000
s99                           6.000000
s141                          6.000000
s142                          6.847500
s143                          6.000000
s149                          6.000000
s171                          6.244870
s182                          6.585907
s193                          6.000000
s224                          6.459796
s237                          6.000000
s250                          6.000000
s259                          6.000000
s264                          6.000000
s267                          6.000000
s29                           6.010000
s47                           7.012126
s251                          6.020000
s218                          6.140000
s121                          6.295939
s49                           6.260000
s104                          6.320000
s89                           6.340000
s184                          7.350913
s118                          7.385518
s185                          6.450000
s253                          6.470000
s200                          6.480000
s36                           6.570000
s233                          6.610000
s75                           6.620000
s210                          6.690000
s159                          7.304919
s18                           7.047824
s124                          7.780074
s63                           7.838407
s123                          6.950000
s240                          6.950000
s213                          6.960000
s212                          7.688391
s241                          7.010000
s274                          7.010000
s205                          8.035219
s228                          7.060000
s7                            8.075047
s1                            7.558997
s245                          8.052621
x273x182x1                    1.000000
x122x18x1                     2.000000
x217x118x1                    1.000000
x217x1x1                      1.000000
x48x63x1                      1.000000
x214x171x1                    1.000000
x214x121x1                    1.000000
x174x182x1                    1.000000
x273x224x2                    1.000000
x31x142x2                     1.000000
x31x159x2                     1.000000
x16x159x2                     1.000000
x16x124x2                     1.000000
x216x142x3                    1.000000
x216x184x3                    1.000000
x249x118x3                    1.000000
x249x212x3                    1.000000
x269x47x3                     2.000000
x48x205x3                     1.000000
x68x171x3                     1.000000
x129x224x3                    1.000000
x129x121x3                    1.000000
x142x7x2                      1.000000
x142x7x3                      1.000000
x171x212x1                    1.000000
x171x63x3                     1.000000
x182x245x1                    2.000000
x224x124x2                    1.000000
x224x205x3                    1.000000
x47x0x3                       2.000000
x121x1x1                      1.000000
x121x184x3                    1.000000
x184x0x3                      2.000000
x118x0x1                      1.000000
x118x0x3                      1.000000
x159x0x2                      2.000000
x18x0x1                       2.000000
x124x0x2                      2.000000
x63x0x1                       1.000000
x63x0x3                       1.000000
x212x0x1                      1.000000
x212x0x3                      1.000000
x205x0x3                      2.000000
x7x0x2                        1.000000
x7x0x3                        1.000000
x1x0x1                        2.000000
x245x0x1                      2.000000
s273                          5.051537
z273z182z1                    1.000000
z273z224z2                    1.000000
z273z124z2                    1.000000
z273z213z2                    1.000000
z273z241z2                    1.000000
z273z228z1                    1.000000
z273z1z1                      1.000000
z273z245z1                    1.000000
s31                           5.233937
z31z142z2                     1.000000
z31z159z2                     1.000000
s216                          5.282804
z216z142z3                    1.000000
z216z47z3                     1.000000
z216z184z3                    1.000000
z216z205z3                    1.000000
s249                          5.375424
z249z118z3                    1.000000
z249z212z3                    1.000000
z249z205z3                    1.000000
s269                          5.416712
z269z47z3                     1.000000
z269z184z3                    1.000000
s122                          5.448246
z122z18z1                     1.000000
z122z228z1                    1.000000
z122z245z1                    1.000000
s16                           5.836922
z16z159z2                     1.000000
z16z124z2                     1.000000
s217                          5.838761
z217z118z1                    1.000000
z217z1z1                      1.000000
z217z245z1                    1.000000
s48                           5.996448
z48z63z1                      1.000000
z48z205z3                     1.000000
s68                           4.073060
z68z171z3                     1.000000
z68z264z3                     1.000000
z68z49z3                      1.000000
z68z89z3                      1.000000
z68z184z3                     1.000000
z68z185z3                     1.000000
z68z205z3                     1.000000
s129                          4.495470
z129z224z3                    1.000000
z129z264z3                    1.000000
z129z47z3                     1.000000
z129z121z3                    1.000000
z129z49z3                     1.000000
z129z89z3                     1.000000
z129z184z3                    1.000000
z129z185z3                    1.000000
z129z205z3                    1.000000
s214                          4.550560
z214z171z1                    1.000000
z214z182z1                    1.000000
z214z121z1                    1.000000
z214z233z1                    1.000000
z214z210z1                    1.000000
z214z18z1                     1.000000
z214z228z1                    1.000000
z214z1z1                      1.000000
z214z245z1                    1.000000
s174                          4.684570
z174z182z1                    1.000000
z174z210z1                    1.000000
z174z18z1                     1.000000
z174z228z1                    1.000000
z174z1z1                      1.000000
z174z245z1                    1.000000
z142z7z2                      1.000000
z142z7z3                      1.000000
z171z63z3                     1.000000
z171z212z1                    1.000000
z182z245z1                    1.000000
z224z124z2                    1.000000
z224z205z3                    1.000000
z121z184z3                    1.000000
z121z1z1                      1.000000
All other variables in the range 1-1893 are 0.
